10J3M/DAT/10J3MUNL-10.dat
10 3
17.1328 17.1328
19.7894 19.7894
33.7783 33.7783
30.6809 30.6809
17.9556 17.9556
41.0096 41.0096
4.8333 4.8333
43.2876 43.2876
43.1432 43.1432
18.9723 18.9723
270.583