10J3M/SOL/10J3MUNL-10.sol
solution status: optimal solution found
objective value:                     90.1943333333333
x#1#1                                               1 	(obj:0)
x#2#1                                               1 	(obj:0)
x#3#2                                               1 	(obj:0)
x#4#1                               0.375182388174184 	(obj:0)
x#4#2                               0.624817611825816 	(obj:0)
x#5#1                                               1 	(obj:0)
x#6#2                               0.908227992144929 	(obj:0)
x#6#3                              0.0917720078550712 	(obj:0)
x#7#1                                               1 	(obj:0)
x#8#3                                               1 	(obj:0)
x#9#3                                               1 	(obj:0)
x#10#1                                              1 	(obj:0)
z                                    90.1943333333333 	(obj:1)
